Set parameter TSPort to value 51199
Set parameter TokenServer to value "open-license1.lanl.gov"
Set parameter TimeLimit to value 1024
Set parameter Threads to value 1
Gurobi Optimizer version 10.0.3 build v10.0.3rc0 (linux64)

CPU model: Intel(R) Xeon(R) CPU E5-2695 v4 @ 2.10GHz, instruction set [SSE2|AVX|AVX2]
Thread count: 36 physical cores, 72 logical processors, using up to 1 threads

Optimize a model with 0 rows, 1940 columns and 0 nonzeros
Model fingerprint: 0xaeeaf6ff
Model has 8688 quadratic objective terms
Variable types: 0 continuous, 1940 integer (1940 binary)
Coefficient statistics:
  Matrix range     [0e+00, 0e+00]
  Objective range  [2e+00, 3e+01]
  QObjective range [8e+00, 8e+00]
  Bounds range     [1e+00, 1e+00]
  RHS range        [0e+00, 0e+00]
Found heuristic solution: objective 0.0000000
Found heuristic solution: objective -3244.000000
Found heuristic solution: objective -11664.00000
Found heuristic solution: objective -11694.00000
Presolve removed 0 rows and 1 columns
Presolve time: 0.39s
Presolved: 8687 rows, 10626 columns, 26061 nonzeros
Variable types: 0 continuous, 10626 integer (10626 binary)

Root relaxation: objective -1.615000e+04, 2762 iterations, 0.04 seconds (0.02 work units)

    Nodes    |    Current Node    |     Objective Bounds      |     Work
 Expl Unexpl |  Obj  Depth IntInf | Incumbent    BestBd   Gap | It/Node Time

     0     0 -16150.000    0 1939 -11694.000 -16150.000  38.1%     -    0s
     0     0 -15043.000    0 2494 -11694.000 -15043.000  28.6%     -    1s
     0     0 -14942.000    0 2550 -11694.000 -14942.000  27.8%     -    1s
     0     0 -14941.000    0 2550 -11694.000 -14941.000  27.8%     -    1s
     0     0 -14654.000    0 2748 -11694.000 -14654.000  25.3%     -    1s
     0     0 -14654.000    0 2718 -11694.000 -14654.000  25.3%     -    2s
     0     2 -14654.000    0 2715 -11694.000 -14654.000  25.3%     -    2s
   128   130 -14102.500   64 3137 -11694.000 -14642.000  25.2%   129    5s
   495   497 -12768.333  248 3639 -11694.000 -14642.000  25.2%  87.6   10s
   783   785 -12027.500  393 3595 -11694.000 -14642.000  25.2%  75.8   15s
   971   953 -11832.000  441 4344 -11694.000 -14642.000  25.2%  68.2   20s
   979   958 -12318.000  332 3382 -11694.000 -13976.599  19.5%  67.6   25s
   983   961 -12460.000  306 4043 -11694.000 -13681.219  17.0%  67.3   34s
   984   962 -12031.500  393 4164 -11694.000 -13629.440  16.6%  67.3   42s
   986   963 -12236.000  346 4333 -11694.000 -13614.549  16.4%  67.1   46s
   993   968 -11812.000  446 4802 -11694.000 -13392.709  14.5%  66.7   81s
   994   968 -13352.754  101 5129 -11694.000 -13352.754  14.2%  66.6  100s
   995   969 -11760.000  461 5297 -11694.000 -13343.358  14.1%  66.5  111s
   996   970 -13338.555  132 5403 -11694.000 -13338.555  14.1%  66.5  115s
   999   972 -13336.330  110 5506 -11694.000 -13336.330  14.0%  66.3  120s
  1006   976 -12694.333  262 5917 -11694.000 -13185.848  12.8%  65.8  174s
  1007   977 -12648.333  270 6258 -11694.000 -13152.407  12.5%  65.7  208s
  1008   978 -11855.500  435 6353 -11694.000 -13146.406  12.4%  65.7  218s
  1009   978 -12607.000  277 6428 -11694.000 -13143.193  12.4%  65.6  224s
  1010   979 -12169.500  361 6476 -11694.000 -13142.468  12.4%  65.5  227s
  1012   980 -13141.768   12 6512 -11694.000 -13141.768  12.4%  65.4  231s
  1019   985 -13032.574  166 7002 -11694.000 -13032.574  11.4%  65.0  303s
  1020   986 -12888.333  229 7203 -11694.000 -13009.091  11.2%  64.9  340s
  1021   986 -12209.500  351 7369 -11694.000 -13002.924  11.2%  64.8  356s
  1022   987 -12060.500  387 7425 -11694.000 -13001.029  11.2%  64.8  364s
  1023   988 -11999.500  398 7482 -11694.000 -13000.265  11.2%  64.7  368s
  1024   988 -12999.693  203 7473 -11694.000 -12999.693  11.2%  64.6  372s
  1025   989 -12836.333  237 7498 -11694.000 -12999.297  11.2%  64.6  375s
  1030   992 -12802.333  242 7568 -11694.000 -12999.111  11.2%  64.3  380s
  1031   993 -12918.659  137 7756 -11694.000 -12918.659  10.5%  64.2  458s
  1032   994 -12900.240   25 8002 -11694.000 -12900.240  10.3%  64.1  509s
  1033   994 -12895.104  117 8130 -11694.000 -12895.104  10.3%  64.1  529s
  1034   995 -11873.000  430 8192 -11694.000 -12893.708  10.3%  64.0  537s
  1035   996 -12893.463  148 8222 -11694.000 -12893.463  10.3%  64.0  540s
  1040   999 -12893.209   12 8228 -11694.000 -12893.209  10.3%  63.7  546s
  1041  1000 -11708.000  481 8243 -11694.000 -12848.850  9.88%  63.6  614s
  1042  1000 -12060.500  387 8424 -11694.000 -12840.085  9.80%  63.5  653s
  1043  1001 -12157.500  363 8425 -11694.000 -12838.337  9.79%  63.5  665s
  1044  1002 -12837.765   59 8449 -11694.000 -12837.765  9.78%  63.4  671s
  1046  1003 -12837.577   14 8516 -11694.000 -12837.577  9.78%  63.3  675s
  1050  1006 -12799.573  176 8671 -11694.000 -12799.573  9.45%  63.0  748s
  1051  1006 -12793.670   48 8750 -11694.000 -12793.670  9.40%  63.0  780s
  1052  1007 -12792.459  127 8766 -11694.000 -12792.459  9.39%  62.9  792s
  1053  1008 -12026.500  394 8812 -11694.000 -12792.048  9.39%  62.9  796s
  1054  1008 -12791.902  195 8846 -11694.000 -12791.902  9.39%  62.8  800s
  1058  1011 -12765.240  150 8782 -11694.000 -12765.240  9.16%  62.6  866s
  1059  1012 -11817.000  445 8863 -11694.000 -12760.415  9.12%  62.5  895s
  1060  1012 -12759.446  183 8891 -11694.000 -12759.446  9.11%  62.5  907s
  1061  1013 -12531.000  294 8933 -11694.000 -12759.225  9.11%  62.4  912s
  1063  1014 -11951.000  410 8955 -11694.000 -12759.128  9.11%  62.3  915s
  1066  1016 -12270.000  340 8851 -11694.000 -12735.835  8.91%  62.1  975s
  1067  1017 -12431.000  310 8941 -11694.000 -12731.758  8.87%  62.0 1004s
  1068  1018 -11725.000  474 8977 -11694.000 -12730.877  8.87%  62.0 1014s
  1069  1018 -12730.615   25 8995 -11694.000 -12730.615  8.86%  61.9 1018s
  1070  1019 -12730.547  150 9012 -11694.000 -12730.547  8.86%  61.9 1020s

Cutting planes:
  Gomory: 85
  MIR: 315
  Flow cover: 2693
  Zero half: 1433
  Mod-K: 42
  RLT: 379
  BQP: 490

Explored 1073 nodes (1008168 simplex iterations) in 1024.00 seconds (1324.94 work units)
Thread count was 1 (of 72 available processors)

Solution count 4: -11694 -11664 -3244 0 

Time limit reached
Best objective -1.169400000000e+04, best bound -1.273000000000e+04, gap 8.8592%

User-callback calls 9715, time in user-callback 0.05 sec

BQP_SOLUTION, 1940, 8688, -4232.000000, 1024.001434, 1, -1, 1, -1, 1, -1, 1, 1, -1, 1, 1, -1, 1, 1, 1, 1, -1, 1, 1, 1, -1, 1, 1, -1, -1, 1, 1, 1, -1, 1, 1, -1, 1, -1, 1, 1, 1, -1, -1, 1, -1, -1, 1, -1, -1, -1, 1, -1, 1, -1, -1, 1, 1, 1, -1, 1, -1, 1, -1, -1, 1, 1, 1, 1, -1, -1, 1, -1, -1, 1, -1, 1, 1, -1, -1, -1, -1, 1, -1, 1, 1, 1, 1, -1, 1, -1, 1, 1, -1, 1, 1, 1, -1, -1, 1, -1, -1, -1, 1, 1, -1, -1, -1, -1, 1, -1, -1, 1, 1, -1, -1, 1, -1, 1, -1, 1, 1, 1, 1, -1, 1, -1, 1, -1, 1, 1, 1, -1, -1, 1, 1, 1, -1, 1, 1, 1, -1, -1, 1, 1, 1, -1, -1, 1, 1, -1, -1, 1, -1, 1, -1, -1, 1, 1, -1, 1, 1, 1, -1, -1, -1, 1, -1, -1, 1, -1, -1, 1, -1, 1, 1, 1, -1, -1, -1, 1, -1, -1, 1, 1, -1, 1, -1, -1, 1, 1, 1, -1, 1, -1, 1, -1, -1, -1, 1, -1, 1, 1, -1, -1, 1, -1, 1, -1, -1, 1, -1, -1, 1, -1, 1, -1, 1, -1, 1, 1, -1, -1, 1, -1, -1, -1, 1, -1, 1, -1, -1, -1, 1, 1, -1, 1, 1, -1, -1, -1, -1, -1, 1, -1, -1, 1, 1, -1, 1, -1, -1, 1, -1, 1, 1, -1, -1, 1, -1, -1, 1, 1, 1, 1, -1, 1, -1, -1, -1, 1, -1, 1, 1, 1, -1, -1, -1, -1, 1, 1, -1, 1, 1, -1, -1, -1, -1, 1, -1, 1, 1, 1, 1, -1, -1, -1, 1, -1, 1, 1, 1, -1, -1, -1, 1, 1, -1, 1, -1, -1, 1, -1, -1, -1, 1, -1, 1, 1, 1, -1, -1, -1, 1, 1, -1, 1, -1, -1, 1, -1, -1, 1, -1, 1, -1, 1, -1, -1, 1, -1, 1, 1, -1, 1, 1, 1, -1, 1, -1, 1, 1, -1, 1, -1, 1, 1, 1, 1, -1, 1, -1, -1, 1, 1, 1, 1, -1, -1, -1, -1, 1, 1, 1, 1, 1, -1, -1, 1, 1, -1, 1, 1, 1, 1, -1, 1, 1, 1, 1, 1, 1, 1, 1, 1, -1, 1, 1, 1, 1, 1, -1, 1, 1, -1, 1, 1, -1, 1, 1, 1, 1, 1, -1, -1, 1, -1, 1, 1, -1, 1, 1, -1, -1, 1, -1, 1, 1, 1, 1, 1, -1, -1, 1, 1, -1, 1, 1, 1, -1, -1, 1, 1, -1, 1, 1, 1, 1, 1, 1, -1, 1, -1, 1, 1, 1, 1, -1, 1, 1, 1, -1, -1, 1, 1, 1, -1, -1, 1, 1, -1, 1, -1, 1, 1, 1, -1, 1, 1, -1, 1, 1, 1, 1, 1, -1, 1, 1, -1, -1, -1, 1, 1, -1, -1, 1, -1, 1, -1, -1, 1, -1, 1, -1, 1, 1, -1, -1, -1, 1, 1, 1, -1, 1, 1, -1, -1, 1, -1, -1, 1, -1, -1, 1, 1, -1, -1, -1, 1, -1, 1, 1, 1, -1, 1, -1, -1, 1, -1, -1, 1, 1, -1, 1, -1, -1, -1, -1, 1, 1, -1, 1, -1, -1, 1, 1, -1, -1, 1, 1, -1, -1, -1, 1, -1, -1, -1, 1, 1, -1, -1, 1, -1, 1, -1, 1, 1, -1, 1, -1, -1, 1, -1, -1, -1, 1, 1, -1, -1, -1, -1, -1, -1, -1, 1, 1, -1, -1, -1, -1, -1, -1, -1, 1, -1, -1, -1, -1, -1, -1, -1, -1, 1, -1, 1, -1, -1, -1, -1, -1, -1, 1, 1, -1, -1, -1, -1, -1, -1, -1, 1, 1, -1, -1, -1, -1, -1, 1, -1, 1, 1, 1, -1, -1, 1, -1, -1, -1, 1, 1, -1, -1, -1, -1, -1, -1, 1, 1, 1, -1, -1, -1, -1, -1, 1, 1, 1, -1, -1, -1, -1, 1, -1, -1, 1, -1, -1, -1, -1, 1, -1, -1, -1, 1, 1, 1, -1, -1, 1, -1, 1, -1, -1, 1, -1, -1, -1, 1, -1, -1, 1, 1, 1, 1, -1, 1, 1, -1, 1, -1, -1, 1, -1, 1, 1, 1, -1, -1, 1, 1, 1, 1, -1, 1, 1, 1, -1, -1, 1, -1, -1, -1, 1, 1, 1, -1, -1, -1, 1, 1, 1, -1, 1, 1, 1, -1, -1, 1, 1, -1, 1, -1, 1, -1, -1, 1, 1, 1, -1, 1, 1, 1, -1, 1, -1, 1, -1, 1, 1, 1, -1, 1, 1, 1, 1, 1, -1, 1, 1, -1, 1, 1, 1, -1, 1, 1, 1, -1, -1, 1, 1, 1, -1, -1, 1, 1, -1, -1, 1, 1, 1, 1, -1, 1, 1, 1, 1, 1, -1, 1, -1, 1, 1, 1, -1, -1, 1, 1, 1, -1, -1, 1, 1, 1, -1, 1, 1, 1, -1, -1, 1, -1, 1, -1, -1, 1, -1, 1, -1, 1, 1, 1, -1, 1, 1, 1, -1, -1, 1, 1, 1, -1, 1, 1, 1, -1, -1, -1, 1, 1, -1, 1, 1, 1, -1, -1, 1, 1, -1, -1, 1, 1, 1, -1, -1, -1, 1, -1, -1, 1, 1, -1, -1, -1, 1, -1, -1, 1, 1, 1, -1, 1, -1, -1, -1, -1, -1, 1, -1, 1, -1, -1, -1, 1, -1, -1, -1, 1, 1, -1, -1, -1, 1, -1, -1, -1, 1, 1, -1, -1, -1, -1, -1, 1, -1, 1, 1, -1, 1, -1, -1, -1, -1, -1, 1, 1, -1, -1, -1, 1, 1, -1, 1, -1, 1, -1, -1, -1, -1, -1, -1, -1, 1, 1, -1, -1, -1, -1, -1, 1, -1, 1, 1, -1, -1, 1, 1, -1, -1, 1, -1, 1, -1, 1, -1, 1, 1, 1, -1, 1, 1, -1, -1, -1, -1, 1, 1, -1, 1, 1, -1, -1, 1, -1, 1, 1, -1, 1, 1, -1, -1, 1, -1, 1, -1, -1, 1, 1, -1, -1, -1, -1, 1, -1, -1, 1, -1, -1, 1, -1, 1, 1, -1, 1, 1, -1, -1, 1, 1, 1, 1, -1, 1, 1, -1, -1, 1, 1, -1, 1, -1, 1, 1, -1, -1, 1, 1, -1, 1, 1, 1, 1, -1, -1, 1, 1, -1, 1, -1, -1, 1, 1, -1, -1, -1, -1, 1, 1, -1, -1, 1, -1, 1, -1, -1, 1, -1, -1, 1, 1, -1, 1, 1, 1, -1, -1, 1, 1, -1, -1, 1, 1, 1, 1, -1, 1, -1, -1, 1, 1, 1, 1, -1, -1, -1, 1, -1, 1, 1, 1, -1, -1, -1, 1, 1, 1, 1, 1, 1, 1, 1, -1, -1, 1, -1, 1, 1, -1, 1, 1, 1, -1, 1, 1, 1, 1, 1, 1, 1, -1, -1, 1, -1, 1, 1, 1, 1, 1, -1, -1, 1, 1, 1, 1, 1, 1, 1, 1, -1, -1, 1, 1, 1, 1, 1, -1, 1, -1, 1, 1, 1, 1, 1, 1, 1, 1, -1, -1, 1, -1, 1, 1, 1, 1, -1, -1, 1, 1, 1, 1, 1, 1, 1, -1, 1, 1, 1, 1, 1, 1, -1, 1, -1, 1, 1, -1, 1, -1, 1, 1, 1, -1, 1, 1, 1, 1, -1, 1, -1, 1, -1, 1, 1, 1, 1, 1, -1, 1, -1, 1, 1, -1, 1, -1, 1, 1, 1, -1, -1, 1, 1, -1, 1, 1, 1, 1, -1, -1, 1, 1, 1, -1, 1, 1, 1, -1, 1, 1, 1, -1, 1, 1, 1, 1, 1, -1, 1, 1, 1, -1, 1, 1, 1, 1, 1, 1, 1, 1, 1, -1, 1, 1, 1, -1, 1, 1, -1, 1, -1, 1, 1, 1, -1, 1, 1, -1, 1, 1, 1, 1, -1, 1, 1, 1, -1, 1, 1, 1, -1, -1, 1, 1, 1, 1, 1, -1, 1, 1, -1, 1, 1, 1, -1, -1, -1, 1, 1, -1, 1, -1, 1, -1, 1, -1, -1, 1, -1, 1, 1, 1, -1, 1, 1, 1, 1, 1, 1, 1, -1, -1, 1, -1, 1, 1, 1, 1, 1, 1, -1, 1, -1, -1, 1, 1, 1, 1, 1, -1, -1, -1, 1, -1, 1, -1, 1, 1, -1, -1, 1, -1, 1, -1, 1, 1, 1, -1, 1, 1, 1, -1, 1, 1, 1, 1, -1, -1, 1, -1, 1, -1, 1, 1, 1, 1, -1, -1, 1, 1, 1, 1, -1, 1, -1, 1, 1, -1, 1, 1, 1, 1, -1, -1, -1, 1, -1, 1, -1, 1, 1, -1, -1, -1, 1, -1, -1, 1, 1, 1, 1, -1, 1, 1, 1, -1, 1, -1, 1, 1, -1, 1, 1, -1, 1, 1, 1, 1, -1, -1, 1, 1, -1, -1, 1, 1, -1, -1, -1, -1, 1, -1, -1, 1, -1, -1, 1, -1, -1, -1, -1, -1, -1, 1, 1, -1, 1, -1, 1, 1, -1, 1, 1, 1, -1, -1, -1, -1, -1, 1, -1, 1, -1, -1, -1, -1, 1, 1, -1, 1, 1, -1, -1, 1, -1, -1, -1, -1, 1, -1, -1, 1, -1, 1, 1, -1, 1, -1, -1, -1, -1, -1, -1, 1, 1, -1, 1, -1, -1, -1, -1, -1, -1, -1, -1, -1, -1, -1, -1, -1, 1, 1, -1, 1, 1, -1, -1, -1, 1, -1, 1, -1, 1, 1, -1, -1, -1, -1, -1, 1, -1, 1, -1, -1, -1, -1, 1, 1, 1, 1, 1, -1, 1, -1, 1, -1, 1, 1, -1, 1, -1, -1, -1, 1, -1, -1, 1, -1, 1, -1, -1, -1, -1, -1, -1, -1, 1, 1, -1, 1, -1, -1, -1, 1, -1, 1, -1, -1, -1, -1, -1, -1, 1, -1, 1, -1, -1, 1, 1, -1, 1, 1, -1, 1, 1, -1, -1, 1, -1, 1, 1, 1, 1, -1, -1, -1, 1, 1, 1, 1, 1, 1, 1, -1, 1, -1, 1, 1, 1, 1, 1, 1, -1, -1, 1, -1, 1, 1, 1, 1, -1, 1, 1, -1, 1, 1, 1, -1, -1, 1, -1, -1, 1, 1, 1, 1, 1, 1, -1, -1, -1, 1, 1, 1, 1, -1, 1, -1, 1, -1, 1, -1, 1, 1, -1, 1, -1, 1, -1, 1, -1, 1, 1, -1, 1, -1, 1, -1, 1, -1, 1, 1, 1, 1, -1, -1, -1, 1, 1, 1, 1, 1, -1, -1, 1, 1, 1, -1, 1, 1, 1, -1, -1, -1, 1, -1, 1, 1, -1, -1, -1, -1, 1, 1, 1, -1, 1, 1, 1, -1, -1, 1, 1, 1, -1, 1, 1, -1, 1, -1, 1, 1, 1, 1, 1, 1, 1, -1, -1, 1, 1, 1, -1, 1, 1, 1, -1, -1, 1, -1, 1, -1, 1, 1, -1, 1, -1, -1, 1, 1, 1, 1, 1, -1, 1, 1, -1, 1, 1, 1, -1, 1, -1, -1, -1, -1, 1, 1, 1, 1, 1, -1, -1, -1, 1, 1, 1, 1, -1, 1, 1, -1, 1, -1, 1, 1, 1, -1, 1, -1, -1, 1, 1, 1, 1, -1, 1, 1, -1, -1, 1, -1, 1, 1, -1, 1, 1, -1, -1, -1, 1, 1, 1, -1, 1, 1, -1, -1, -1, -1, 1, 1, -1, -1, 1, -1, -1, 1, -1, 1, 1, 1, -1, 1, -1, -1, -1, 1, 1, 1, -1, -1, 1, -1, 1, -1, -1, -1, 1, 1, -1, 1, -1, -1, -1, -1, 1, 1, -1, 1, 1, -1, -1, 1, 1, -1, 1, 1, -1, 1, 1, -1, -1, -1, -1, 1, 1, -1, 1, -1, -1, 1, 1, 1, 1, 1, 1, -1, -1, 1, 1, -1, -1, 1, 1, -1, 1
BQP_DATA, 1940, 8688, -4232.000000, -5268.000000, -11694.000000, -12730.000000, 1024.001434, 4568, 1073
